(declare-fun var0 () String)
(declare-fun var1 () String)
(declare-fun var2 () String)
(declare-fun var3 () String)
(declare-fun var4 () String)
(declare-fun var5 () String)
(declare-fun var6 () String)
(declare-fun var7 () String)
(declare-fun var8 () String)
(declare-fun var9 () String)
(declare-fun var10 () String)
(declare-fun var11 () String)
(declare-fun var12 () String)
(declare-fun var13 () String)
(declare-fun var14 () String)
(declare-fun var15 () String)
(declare-fun var16 () String)
(declare-fun var17 () String)
(declare-fun var18 () String)
(declare-fun var19 () String)
(declare-fun var20 () String)
(declare-fun var21 () String)
(declare-fun var22 () String)
(declare-fun var23 () String)
(declare-fun var24 () String)
(declare-fun var25 () String)
(declare-fun var26 () String)
(declare-fun var27 () String)
(declare-fun var28 () String)
(declare-fun var29 () String)
(declare-fun var30 () String)
(declare-fun var31 () String)
(declare-fun var32 () String)
(declare-fun var33 () String)
(declare-fun var34 () String)
(declare-fun var35 () String)
(declare-fun var36 () String)
(declare-fun var37 () String)
(declare-fun var38 () String)
(declare-fun var39 () String)
(declare-fun var40 () String)
(declare-fun var41 () String)
(declare-fun var42 () String)
(declare-fun var43 () String)
(declare-fun var44 () String)
(declare-fun var45 () String)
(declare-fun var46 () String)
(declare-fun var47 () String)
(declare-fun var48 () String)
(declare-fun var49 () String)
(declare-fun var50 () String)
(declare-fun var51 () String)
(declare-fun var52 () String)
(declare-fun var53 () String)
(declare-fun var54 () String)
(declare-fun var55 () String)
(declare-fun var56 () String)
(declare-fun var57 () String)
(declare-fun var58 () String)
(declare-fun var59 () String)
(declare-fun var60 () String)
(assert (= var0 (Concat var1 var2)))
(assert (= var2 (Concat var3 var4)))
(assert (= var4 (Concat var5 var6)))
(assert (= var6 (Concat var7 var8)))
(assert (= var8 (Concat var9 var10)))
(assert (= var10 (Concat var11 var12)))
(assert (= var12 (Concat var13 var14)))
(assert (= var14 (Concat var15 var16)))
(assert (= var16 (Concat var17 var18)))
(assert (= var18 (Concat var19 var20)))
(assert (= var20 (Concat var21 var22)))
(assert (= var22 (Concat var23 var24)))
(assert (= var24 (Concat var25 var26)))
(assert (= var26 (Concat var27 var28)))
(assert (= var28 (Concat var29 var30)))
(assert (= var30 (Concat var31 var32)))
(assert (= var32 (Concat var33 var34)))
(assert (= var34 (Concat var35 var36)))
(assert (= var36 (Concat var37 var38)))
(assert (= var38 (Concat var39 var40)))
(assert (= var40 (Concat var41 var42)))
(assert (= var42 (Concat var43 var44)))
(assert (= var44 (Concat var45 var46)))
(assert (= var46 (Concat var47 var48)))
(assert (= var48 (Concat var49 var50)))
(assert (= var50 (Concat var51 var52)))
(assert (= var52 (Concat var53 var54)))
(assert (= var54 (Concat var55 var56)))
(assert (= var56 (Concat var57 var58)))
(assert (= var58 (Concat var59 var60)))
(assert (= var0 "solution"))
(assert (= "l" (CharAt var44 999)))
(assert (= "l" (CharAt var60 738)))
(assert (= "Y" (CharAt var15 694)))
(assert (= "." (CharAt var51 116)))
(assert (= "U" (CharAt var34 382)))
(assert (= "%" (CharAt var35 872)))
(assert (= "P" (CharAt var49 135)))
(assert (= "n" (CharAt var26 933)))
(assert (= "e" (CharAt var6 272)))
(assert (= "Y" (CharAt var33 29)))
(assert (= "K" (CharAt var35 772)))
(assert (= "?" (CharAt var49 102)))
(assert (= ">" (CharAt var53 398)))
(assert (= "a" (CharAt var0 294)))
(assert (= "d" (CharAt var26 518)))
(assert (= "J" (CharAt var28 502)))
(assert (= "y" (CharAt var44 538)))
(assert (= "0" (CharAt var46 333)))
(assert (= "7" (CharAt var59 79)))
(assert (= "w" (CharAt var40 866)))
(assert (= "(" (CharAt var53 903)))
(assert (= "O" (CharAt var56 922)))
(assert (= "$" (CharAt var22 942)))
(assert (= "h" (CharAt var13 388)))
(assert (= "p" (CharAt var55 652)))
(assert (= "e" (CharAt var49 320)))
(assert (= "," (CharAt var43 489)))
(assert (= "4" (CharAt var17 964)))
(assert (= "'" (CharAt var55 601)))
(assert (= "e" (CharAt var16 12)))
(assert (= "M" (CharAt var21 88)))
(assert (= "C" (CharAt var16 67)))
(assert (= "$" (CharAt var17 206)))
(assert (= "<" (CharAt var34 184)))
(assert (= "A" (CharAt var26 823)))
(assert (= "R" (CharAt var26 594)))
(assert (= ";" (CharAt var28 301)))
(assert (= ":" (CharAt var25 590)))
(assert (= "E" (CharAt var0 399)))
(assert (= "9" (CharAt var16 197)))
(assert (= "q" (CharAt var54 709)))
(assert (= "k" (CharAt var25 256)))
(assert (= "T" (CharAt var25 195)))
(assert (= "?" (CharAt var57 44)))
(assert (= "8" (CharAt var17 991)))
(assert (= "R" (CharAt var49 50)))
(assert (= "h" (CharAt var28 931)))
(assert (= "U" (CharAt var50 492)))
(assert (= "D" (CharAt var58 614)))
(assert (= "=" (CharAt var8 465)))
(assert (= "8" (CharAt var37 797)))
(assert (= "]" (CharAt var24 178)))
(assert (= "V" (CharAt var51 241)))
(assert (= "9" (CharAt var10 425)))
(assert (= "_" (CharAt var36 560)))
(assert (= "_" (CharAt var3 128)))
(assert (= "C" (CharAt var5 130)))
(assert (= "'" (CharAt var20 569)))
(assert (= ")" (CharAt var4 455)))
(assert (= "x" (CharAt var21 784)))
(assert (= "(" (CharAt var43 953)))
(assert (= "1" (CharAt var30 835)))
(assert (= "t" (CharAt var18 571)))
(assert (= "h" (CharAt var24 590)))
(assert (= "2" (CharAt var33 644)))
(assert (= "u" (CharAt var49 859)))
(assert (= "E" (CharAt var51 719)))
(assert (= "X" (CharAt var42 294)))
(assert (= "Y" (CharAt var41 195)))
(assert (= "K" (CharAt var33 813)))
(assert (= "h" (CharAt var55 866)))
(assert (= "c" (CharAt var46 868)))
(assert (= "-" (CharAt var9 565)))
(assert (= "w" (CharAt var42 677)))
(assert (= ":" (CharAt var40 827)))
(assert (= "/" (CharAt var12 131)))
(assert (= "?" (CharAt var48 984)))
(assert (= "t" (CharAt var20 36)))
(assert (= "B" (CharAt var34 773)))
(assert (= "[" (CharAt var1 604)))
(assert (= "Z" (CharAt var39 64)))
(assert (= "1" (CharAt var7 870)))
(assert (= "." (CharAt var11 172)))
(assert (= "a" (CharAt var16 602)))
(assert (= "+" (CharAt var25 728)))
(assert (= "E" (CharAt var38 626)))
(assert (= "/" (CharAt var41 242)))
(assert (= "%" (CharAt var25 285)))
(assert (= "J" (CharAt var37 160)))
(assert (= "Z" (CharAt var29 334)))
(assert (= "%" (CharAt var10 890)))
(assert (= "]" (CharAt var16 677)))
(assert (= "e" (CharAt var17 170)))
(assert (= "^" (CharAt var41 640)))
(assert (= "&" (CharAt var41 908)))
(assert (= "X" (CharAt var40 214)))
(assert (= "^" (CharAt var46 221)))
(assert (= "9" (CharAt var20 98)))
(assert (= "~" (CharAt var41 760)))
(assert (= "~" (CharAt var19 635)))
(assert (= "," (CharAt var24 300)))
(assert (= "i" (CharAt var28 3)))
(assert (= "n" (CharAt var57 880)))
(assert (= "Y" (CharAt var17 243)))
(assert (= "S" (CharAt var56 78)))
(assert (= "r" (CharAt var43 891)))
(assert (= "4" (CharAt var5 778)))
(assert (= ":" (CharAt var44 443)))
(assert (= "t" (CharAt var40 411)))
(assert (= "a" (CharAt var59 22)))
(assert (= "1" (CharAt var56 37)))
(assert (= "Z" (CharAt var29 595)))
(assert (= "d" (CharAt var17 295)))
(assert (= "h" (CharAt var21 394)))
(assert (= "A" (CharAt var46 561)))
(assert (= "9" (CharAt var46 761)))
(assert (= "@" (CharAt var14 384)))
(assert (= "I" (CharAt var0 649)))
(assert (= "w" (CharAt var44 988)))
(assert (= "o" (CharAt var53 282)))
(assert (= "8" (CharAt var22 120)))
(assert (= "V" (CharAt var25 176)))
(assert (= "+" (CharAt var21 855)))
(assert (= "+" (CharAt var59 83)))
(assert (= "/" (CharAt var55 290)))
(assert (= "S" (CharAt var58 243)))
(assert (= "E" (CharAt var0 67)))
(assert (= "K" (CharAt var43 143)))
(assert (= "-" (CharAt var34 668)))
(assert (= "c" (CharAt var3 129)))
(assert (= "v" (CharAt var31 22)))
(assert (= "U" (CharAt var23 239)))
(assert (= "l" (CharAt var24 483)))
(assert (= "V" (CharAt var47 49)))
(assert (= "p" (CharAt var53 297)))
(assert (= "9" (CharAt var13 923)))
(assert (= "~" (CharAt var44 243)))
(assert (= "T" (CharAt var23 342)))
(assert (= "#" (CharAt var48 190)))
(assert (= "2" (CharAt var47 128)))
(assert (= "a" (CharAt var12 160)))
(assert (= "m" (CharAt var19 952)))
(assert (= "-" (CharAt var38 62)))
(assert (= "5" (CharAt var37 385)))
(assert (= "&" (CharAt var6 833)))
(assert (= "E" (CharAt var37 493)))
(assert (= "U" (CharAt var38 32)))
(assert (= "w" (CharAt var7 724)))
(assert (= "T" (CharAt var20 432)))
(assert (= ";" (CharAt var17 916)))
(assert (= "O" (CharAt var23 37)))
(assert (= "5" (CharAt var4 716)))
(assert (= "2" (CharAt var2 912)))
(assert (= "Y" (CharAt var25 353)))
(assert (= ")" (CharAt var3 942)))
(assert (= "y" (CharAt var2 678)))
(assert (= "8" (CharAt var35 552)))
(assert (= "@" (CharAt var52 783)))
(assert (= "#" (CharAt var3 352)))
(assert (= "{" (CharAt var32 130)))
(assert (= "G" (CharAt var44 604)))
(assert (= "]" (CharAt var56 679)))
(assert (= "~" (CharAt var60 929)))
(assert (= "h" (CharAt var23 282)))
(assert (= "7" (CharAt var16 848)))
(assert (= "t" (CharAt var54 357)))
(assert (= "%" (CharAt var20 862)))
(assert (= "t" (CharAt var1 588)))
(assert (= "v" (CharAt var36 438)))
(assert (= "\"" (CharAt var13 67)))
(assert (= "C" (CharAt var47 183)))
(assert (= "8" (CharAt var21 469)))
(assert (= "&" (CharAt var3 646)))
(assert (= "`" (CharAt var47 287)))
(assert (= "2" (CharAt var1 296)))
(assert (= "7" (CharAt var36 501)))
(assert (= "r" (CharAt var13 22)))
(assert (= "c" (CharAt var50 408)))
(assert (= "o" (CharAt var43 352)))
(assert (= "4" (CharAt var20 859)))
(assert (= "^" (CharAt var53 741)))
(assert (= "c" (CharAt var46 495)))
(assert (= "\"" (CharAt var12 669)))
(assert (= "B" (CharAt var39 960)))
(assert (= "~" (CharAt var49 234)))
(assert (= "<" (CharAt var39 574)))
(assert (= "3" (CharAt var39 239)))
(assert (= "g" (CharAt var51 90)))
(assert (= "b" (CharAt var37 888)))
(assert (= "2" (CharAt var28 549)))
(assert (= "q" (CharAt var33 370)))
(assert (= "K" (CharAt var57 504)))
(assert (= "q" (CharAt var22 449)))
(assert (= "7" (CharAt var21 13)))
(assert (= "!" (CharAt var42 577)))
(assert (= "=" (CharAt var36 357)))
(assert (= "U" (CharAt var58 847)))
(assert (= "<" (CharAt var46 433)))
(assert (= "4" (CharAt var16 714)))
(assert (= "`" (CharAt var59 175)))
(assert (= "%" (CharAt var6 874)))
(assert (= "z" (CharAt var41 150)))
(assert (= "8" (CharAt var33 892)))
(assert (= ">" (CharAt var49 904)))
(assert (= "8" (CharAt var22 801)))
(assert (= "g" (CharAt var20 999)))
(assert (= "E" (CharAt var33 173)))
(assert (= "@" (CharAt var12 882)))
(assert (= "{" (CharAt var49 623)))
(assert (= "(" (CharAt var51 1)))
(assert (= "*" (CharAt var9 140)))
(assert (= "2" (CharAt var18 30)))
(assert (= "i" (CharAt var44 146)))
(assert (= "\"" (CharAt var24 236)))
(assert (= "5" (CharAt var21 546)))
(assert (= "w" (CharAt var46 215)))
(assert (= "D" (CharAt var29 983)))
(assert (= "j" (CharAt var3 233)))
(assert (= ";" (CharAt var51 835)))
(assert (= "k" (CharAt var7 6)))
(assert (= "4" (CharAt var26 79)))
(assert (= "." (CharAt var22 80)))
(assert (= "3" (CharAt var48 119)))
(assert (= ")" (CharAt var36 9)))
(assert (= "E" (CharAt var55 880)))
(assert (= "8" (CharAt var4 880)))
(assert (= "j" (CharAt var8 0)))
(assert (= "t" (CharAt var57 188)))
(assert (= "$" (CharAt var7 274)))
(assert (= "9" (CharAt var10 806)))
(assert (= "\"" (CharAt var38 390)))
(assert (= "a" (CharAt var31 938)))
(assert (= "L" (CharAt var47 760)))
(assert (= "\"" (CharAt var3 856)))
(assert (= "^" (CharAt var21 36)))
(assert (= "y" (CharAt var9 841)))
(assert (= "3" (CharAt var18 171)))
(assert (= "$" (CharAt var30 901)))
(assert (= ">" (CharAt var12 902)))
(assert (= "*" (CharAt var41 192)))
(assert (= "C" (CharAt var31 96)))
(assert (= "?" (CharAt var29 175)))
(assert (= "6" (CharAt var1 620)))
(assert (= "p" (CharAt var40 145)))
(assert (= "@" (CharAt var18 183)))
(assert (= "f" (CharAt var14 966)))
(assert (= "+" (CharAt var39 250)))
(assert (= "-" (CharAt var9 796)))
(assert (= "z" (CharAt var43 618)))
(assert (= "y" (CharAt var10 794)))
(assert (= "." (CharAt var29 834)))
(assert (= "5" (CharAt var60 15)))
(assert (= "G" (CharAt var32 961)))
(assert (= "*" (CharAt var54 704)))
(assert (= "T" (CharAt var51 547)))
(assert (= "j" (CharAt var44 57)))
(assert (= "m" (CharAt var7 148)))
(assert (= "M" (CharAt var8 328)))
(assert (= "h" (CharAt var18 39)))
(assert (= "=" (CharAt var36 950)))
(assert (= "o" (CharAt var18 108)))
(assert (= "q" (CharAt var50 253)))
(assert (= "#" (CharAt var41 940)))
(assert (= "%" (CharAt var29 824)))
(assert (= "J" (CharAt var39 502)))
(assert (= "g" (CharAt var20 456)))
(assert (= "]" (CharAt var31 33)))
(assert (= "'" (CharAt var55 482)))
(assert (= "v" (CharAt var44 171)))
(assert (= "}" (CharAt var49 11)))
(assert (= "r" (CharAt var10 925)))
(assert (= "(" (CharAt var4 477)))
(assert (= "0" (CharAt var48 715)))
(assert (= "K" (CharAt var32 392)))
(assert (= "y" (CharAt var6 301)))
(assert (= "f" (CharAt var9 607)))
(assert (= "s" (CharAt var55 943)))
(assert (= "U" (CharAt var11 129)))
(assert (= "L" (CharAt var46 913)))
(assert (= "@" (CharAt var28 835)))
(assert (= "W" (CharAt var44 288)))
(assert (= "n" (CharAt var26 819)))
(assert (= "_" (CharAt var49 541)))
(assert (= "P" (CharAt var50 796)))
(assert (= "p" (CharAt var26 32)))
(assert (= "x" (CharAt var27 362)))
(assert (= "t" (CharAt var37 471)))
(assert (= "x" (CharAt var55 873)))
(assert (= "^" (CharAt var27 963)))
(assert (= "L" (CharAt var29 665)))
(assert (= "E" (CharAt var12 961)))
(assert (= "D" (CharAt var52 829)))
(assert (= "_" (CharAt var16 522)))
(assert (= "b" (CharAt var31 559)))
(assert (= "S" (CharAt var15 778)))
(assert (= "r" (CharAt var45 842)))
(assert (= "a" (CharAt var47 489)))
(assert (= "D" (CharAt var51 976)))
(assert (= "P" (CharAt var6 460)))
(assert (= "z" (CharAt var34 885)))
(assert (= "4" (CharAt var4 834)))
(assert (= "\\" (CharAt var7 845)))
(assert (= "E" (CharAt var45 141)))
(assert (= "U" (CharAt var30 850)))
(assert (= ">" (CharAt var14 52)))
(assert (= "3" (CharAt var5 917)))
(assert (= "J" (CharAt var48 223)))
(assert (= "K" (CharAt var37 17)))
(assert (= "r" (CharAt var16 78)))
(assert (= "6" (CharAt var28 856)))
(assert (= "y" (CharAt var16 905)))
(assert (= "K" (CharAt var58 425)))
(assert (= "(" (CharAt var31 712)))
(assert (= "5" (CharAt var30 480)))
(assert (= "B" (CharAt var24 368)))
(assert (= "." (CharAt var37 322)))
(assert (= "z" (CharAt var39 162)))
(assert (= "\\" (CharAt var33 742)))
(assert (= "a" (CharAt var9 809)))
(assert (= "_" (CharAt var46 935)))
(assert (= "^" (CharAt var25 340)))
(assert (= "F" (CharAt var42 70)))
(assert (= "E" (CharAt var37 532)))
(assert (= "<" (CharAt var25 478)))
(assert (= "n" (CharAt var15 964)))
(assert (= "F" (CharAt var35 606)))
(assert (= "-" (CharAt var5 604)))
(assert (= "o" (CharAt var5 587)))
(assert (= ")" (CharAt var28 165)))
(assert (= "Y" (CharAt var13 4)))
(assert (= "G" (CharAt var60 503)))
(assert (= "I" (CharAt var42 845)))
(assert (= "K" (CharAt var38 250)))
(assert (= "U" (CharAt var42 278)))
(assert (= "N" (CharAt var58 510)))
(assert (= "m" (CharAt var43 477)))
(assert (= "f" (CharAt var43 377)))
(assert (= "\"" (CharAt var32 372)))
(assert (= "(" (CharAt var44 587)))
(assert (= "4" (CharAt var46 25)))
(assert (= "^" (CharAt var33 145)))
(assert (= "4" (CharAt var15 546)))
(assert (= "1" (CharAt var10 500)))
(assert (= "{" (CharAt var11 49)))
(assert (= "J" (CharAt var24 834)))
(assert (= "#" (CharAt var33 567)))
(assert (= "v" (CharAt var30 351)))
(assert (= "*" (CharAt var0 397)))
(assert (= "h" (CharAt var27 554)))
(assert (= "z" (CharAt var22 344)))
(assert (= "]" (CharAt var10 461)))
(assert (= "&" (CharAt var56 132)))
(assert (= "]" (CharAt var23 987)))
(assert (= "^" (CharAt var32 699)))
(assert (= "i" (CharAt var36 638)))
(assert (= "J" (CharAt var7 883)))
(assert (= "h" (CharAt var56 925)))
(assert (= "f" (CharAt var9 576)))
(assert (= "U" (CharAt var22 590)))
(assert (= "C" (CharAt var39 353)))
(assert (= "N" (CharAt var45 348)))
(assert (= "G" (CharAt var58 107)))
(assert (= ";" (CharAt var6 509)))
(assert (= "k" (CharAt var29 325)))
(assert (= "&" (CharAt var43 856)))
(assert (= "O" (CharAt var27 316)))
(assert (= "=" (CharAt var28 321)))
(assert (= ">" (CharAt var29 245)))
(assert (= "d" (CharAt var19 254)))
(assert (= "g" (CharAt var26 835)))
(assert (= "|" (CharAt var29 155)))
(assert (= "w" (CharAt var8 225)))
(assert (= "d" (CharAt var54 546)))
(assert (= "v" (CharAt var39 154)))
(assert (= "s" (CharAt var39 909)))
(assert (= "4" (CharAt var33 89)))
(assert (= "M" (CharAt var54 593)))
(assert (= "&" (CharAt var25 408)))
(assert (= "9" (CharAt var30 305)))
(assert (= "i" (CharAt var58 879)))
(assert (= "L" (CharAt var21 673)))
(assert (= "@" (CharAt var34 283)))
(assert (= "D" (CharAt var22 26)))
(assert (= "o" (CharAt var11 417)))
(assert (= "^" (CharAt var32 895)))
(assert (= "{" (CharAt var59 638)))
(assert (= ">" (CharAt var33 302)))
(assert (= "F" (CharAt var17 529)))
(assert (= "^" (CharAt var9 966)))
(assert (= "[" (CharAt var52 490)))
(assert (= ")" (CharAt var23 708)))
(assert (= "c" (CharAt var38 373)))
(assert (= "(" (CharAt var7 358)))
(assert (= "K" (CharAt var45 937)))
(assert (= "o" (CharAt var32 433)))
(assert (= "+" (CharAt var38 827)))
(assert (= "=" (CharAt var39 910)))
(assert (= "3" (CharAt var37 346)))
(assert (= "'" (CharAt var4 872)))
(assert (= "e" (CharAt var46 632)))
(assert (= "d" (CharAt var18 572)))
(assert (= "-" (CharAt var28 952)))
(assert (= "a" (CharAt var38 355)))
(assert (= "|" (CharAt var40 243)))
(assert (= "," (CharAt var45 183)))
(assert (= "\\" (CharAt var32 28)))
(assert (= "/" (CharAt var43 124)))
(assert (= "|" (CharAt var10 614)))
(assert (= "d" (CharAt var55 484)))
(assert (= "5" (CharAt var32 293)))
(assert (= "F" (CharAt var0 466)))
(assert (= "&" (CharAt var32 264)))
(assert (= "Z" (CharAt var51 10)))
(assert (= "R" (CharAt var28 221)))
(assert (= "K" (CharAt var41 589)))
(assert (= "v" (CharAt var21 32)))
(assert (= "f" (CharAt var46 846)))
(assert (= "1" (CharAt var42 253)))
(assert (= "<" (CharAt var32 969)))
(assert (= "o" (CharAt var58 259)))
(assert (= "<" (CharAt var58 984)))
(assert (= "\"" (CharAt var41 621)))
(assert (= "9" (CharAt var1 277)))
(assert (= "W" (CharAt var44 530)))
(assert (= "M" (CharAt var44 399)))
(assert (= "q" (CharAt var41 59)))
(assert (= "t" (CharAt var47 796)))
(assert (= "|" (CharAt var47 33)))
(assert (= "0" (CharAt var13 984)))
(assert (= "/" (CharAt var55 614)))
(assert (= "K" (CharAt var2 167)))
(assert (= "R" (CharAt var41 532)))
(assert (= "-" (CharAt var46 456)))
(assert (= "A" (CharAt var34 210)))
(assert (= "7" (CharAt var47 188)))
(assert (= "V" (CharAt var42 572)))
(assert (= "T" (CharAt var26 519)))
(assert (= "!" (CharAt var13 410)))
(assert (= "J" (CharAt var44 565)))
(assert (= "Q" (CharAt var26 135)))
(assert (= "'" (CharAt var19 91)))
(assert (= "[" (CharAt var47 80)))
(assert (= "C" (CharAt var5 535)))
(assert (= "C" (CharAt var53 687)))
(assert (= "p" (CharAt var22 218)))
(assert (= "l" (CharAt var40 166)))
(assert (= "E" (CharAt var37 157)))
(assert (= "n" (CharAt var16 286)))
(assert (= "H" (CharAt var54 375)))
(assert (= "\"" (CharAt var52 619)))
(assert (= "z" (CharAt var16 556)))
(assert (= "v" (CharAt var59 591)))
(assert (= ":" (CharAt var25 847)))
(assert (= "n" (CharAt var31 564)))
(assert (= "e" (CharAt var40 518)))
(assert (= "5" (CharAt var32 551)))
(assert (= "5" (CharAt var30 849)))
(assert (= "|" (CharAt var54 15)))
(assert (= "E" (CharAt var14 684)))
(assert (= "t" (CharAt var34 255)))
(assert (= "$" (CharAt var56 431)))
(assert (= "n" (CharAt var36 193)))
(assert (= "(" (CharAt var18 928)))
(assert (= "F" (CharAt var60 382)))
(assert (= "D" (CharAt var5 500)))
(assert (= "@" (CharAt var6 546)))
(assert (= "i" (CharAt var4 36)))
(assert (= "e" (CharAt var6 654)))
(assert (= "8" (CharAt var45 444)))
(assert (= "c" (CharAt var4 94)))
(assert (= "~" (CharAt var19 205)))
(assert (= "O" (CharAt var14 566)))
(assert (= "h" (CharAt var2 235)))
(assert (= "B" (CharAt var54 434)))
(assert (= "d" (CharAt var51 145)))
(assert (= "n" (CharAt var32 527)))
(assert (= "H" (CharAt var19 7)))
(assert (= "-" (CharAt var2 981)))
(assert (= "," (CharAt var32 953)))
(assert (= "Y" (CharAt var46 901)))
(assert (= "}" (CharAt var33 496)))
(check-sat)